222 5
10 10 10 10 10 

0 0 0 0 0 0 2 2 54 
0 0 0 0 0 0 5 3 4 5 7 16 
6 1 7 1 5 2 2 15 6 
3 8 6 10 5 10 3 18 10 8 
6 8 10 5 7 9 3 18 15 8 
6 8 5 8 8 8 4 18 11 10 9 
6 9 5 10 9 10 3 18 10 9 
5 6 10 5 10 10 4 13 12 11 9 
8 5 8 8 6 9 4 30 19 17 14 
1 6 10 7 5 4 3 21 13 12 
7 5 8 6 9 2 4 30 23 22 17 
7 10 4 8 7 7 4 30 25 23 19 
4 7 7 9 9 10 4 30 25 22 20 
4 10 6 10 10 10 3 23 21 20 
7 7 8 7 10 3 3 30 25 19 
9 9 10 9 10 7 2 30 17 
7 9 10 9 6 10 2 25 20 
3 7 9 6 7 8 1 19 
2 9 10 7 6 3 2 27 22 
9 9 5 10 9 4 3 28 27 24 
1 8 8 10 10 8 1 22 
8 9 4 10 8 6 3 28 24 69 
9 10 8 8 10 7 4 35 29 27 26 
10 10 7 10 8 10 3 35 29 26 
6 7 7 5 5 7 3 35 29 27 
3 3 7 4 9 6 3 34 33 31 
3 10 6 2 8 5 3 34 33 31 
3 8 5 8 8 10 3 38 35 31 
2 9 7 4 8 6 3 38 37 32 
9 9 8 7 5 10 6 52 40 39 38 37 36 
2 7 6 7 9 10 2 37 32 
6 7 5 10 9 9 5 52 51 40 39 36 
8 5 10 10 9 9 4 40 38 37 36 
3 4 4 6 9 6 4 52 39 37 36 
9 10 4 10 5 4 4 51 39 37 36 
2 4 8 8 8 5 8 49 48 47 45 44 43 42 41 
6 8 10 5 8 9 4 49 45 44 42 
2 5 7 9 5 9 4 51 48 43 42 
8 5 10 10 4 10 3 46 45 44 
1 7 10 3 6 7 3 47 43 42 
3 7 8 7 3 10 2 50 46 
8 10 10 6 4 7 1 53 
3 10 7 6 6 10 1 53 
5 4 5 10 8 10 1 53 
9 5 8 10 7 7 1 53 
10 10 9 9 10 10 1 53 
3 10 10 5 9 10 1 53 
8 10 10 10 6 5 1 53 
2 9 6 10 9 7 1 53 
10 6 7 9 10 6 1 53 
5 8 7 2 9 7 1 53 
4 8 9 10 5 7 1 53 
0 0 0 0 0 0 1 222 
0 0 0 0 0 0 4 55 57 58 218 
5 0 9 0 0 0 3 63 59 56 
3 0 4 0 0 0 4 64 62 61 60 
3 0 5 0 0 0 3 63 62 60 
5 0 10 0 0 0 2 61 60 
8 0 10 0 0 0 1 60 
9 0 7 0 0 0 1 65 
5 0 8 0 0 0 1 65 
4 0 10 0 0 0 1 65 
10 0 3 0 0 0 1 65 
2 0 9 0 0 0 1 65 
0 0 0 0 0 0 2 66 78 
0 0 0 0 0 0 4 67 68 69 71 
5 0 0 0 0 4 4 76 72 70 168 
10 0 0 0 0 7 4 76 75 74 73 
8 0 0 0 0 7 3 76 73 72 
2 0 0 0 0 9 2 74 73 
1 0 0 0 0 7 2 74 73 
8 0 0 0 0 8 1 75 
8 0 0 0 0 7 1 77 
4 0 0 0 0 6 1 77 
7 0 0 0 0 10 1 77 
5 0 0 0 0 10 1 77 
0 0 0 0 0 0 2 120 152 
0 0 0 0 0 0 3 79 80 84 
8 4 5 0 5 5 4 86 83 82 81 
8 7 8 0 6 10 4 93 91 88 85 
2 7 6 0 6 10 6 104 93 92 91 89 88 
1 8 8 0 8 7 3 93 88 85 
9 4 8 0 5 10 5 99 93 90 89 87 
3 5 4 0 8 7 3 92 88 86 
1 8 9 0 6 10 4 99 95 90 87 
5 9 6 0 10 6 7 104 102 101 99 98 95 93 
10 7 8 0 6 5 6 104 102 100 97 96 92 
8 10 7 0 9 8 4 102 100 94 90 
9 8 10 0 10 6 6 101 100 98 97 96 95 
5 2 6 0 10 6 6 106 105 101 98 97 96 
4 8 6 0 10 6 5 103 100 99 97 95 
4 8 10 0 8 4 5 106 105 101 98 94 
10 8 8 0 7 10 5 105 100 97 96 94 
6 6 4 0 9 10 3 111 107 103 
1 7 9 0 9 10 3 109 106 105 
2 10 10 0 10 7 2 107 103 
2 6 4 0 10 7 3 110 109 108 
1 6 8 0 9 6 3 110 109 108 
9 10 6 0 9 10 3 110 109 108 
10 9 4 0 10 5 2 109 107 
3 5 9 0 3 3 2 111 107 
10 5 6 0 7 6 3 109 107 135 
3 8 10 0 5 6 4 113 112 110 109 
5 7 9 0 8 6 4 113 112 110 109 
8 8 8 0 5 5 3 118 111 108 
7 7 7 0 9 10 1 107 
10 7 8 0 9 9 2 118 108 
7 9 8 0 4 6 3 117 113 112 
4 10 6 0 10 5 4 117 116 115 114 
2 8 9 0 7 6 4 118 117 115 114 
8 8 10 0 10 10 1 112 
7 10 9 0 9 10 3 116 115 114 
4 10 8 0 6 10 3 116 115 114 
3 8 10 0 7 8 1 119 
2 5 6 0 4 8 1 119 
8 10 7 0 7 10 1 119 
8 10 6 0 7 10 1 119 
1 8 10 0 3 7 1 119 
0 0 0 0 0 0 1 222 
0 0 0 0 0 0 6 121 122 123 124 125 128 
2 0 0 4 7 4 5 138 136 129 127 126 
5 0 0 10 10 10 4 136 135 129 126 
1 0 0 6 6 9 3 138 129 126 
9 0 0 5 5 9 4 138 127 126 157 
1 0 0 7 8 8 2 138 127 
9 0 0 3 3 6 5 139 134 133 132 131 
7 0 0 10 9 8 5 140 139 135 134 133 
1 0 0 9 8 10 3 140 139 133 
1 0 0 7 9 10 1 130 
5 0 0 10 7 8 3 140 139 137 
4 0 0 9 7 10 2 140 137 
1 0 0 9 9 6 2 140 137 
2 0 0 7 10 7 1 137 
7 0 0 7 7 6 1 137 
7 0 0 9 9 7 1 137 
4 0 0 7 10 8 1 137 
9 0 0 5 6 10 5 150 149 146 142 141 
2 0 0 10 6 10 2 146 140 
5 0 0 7 8 6 2 149 141 
4 0 0 6 5 9 4 150 149 148 145 
3 0 0 10 9 4 2 148 144 
3 0 0 7 10 4 1 143 
9 0 0 9 4 4 2 148 147 
2 0 0 3 9 7 1 145 
3 0 0 6 7 8 1 147 
3 0 0 10 10 10 1 148 
9 0 0 6 4 5 1 151 
8 0 0 10 6 9 1 151 
9 0 0 9 8 6 1 151 
10 0 0 8 9 7 1 151 
0 0 0 0 0 0 1 222 
0 0 0 0 0 0 4 153 160 161 162 
3 0 0 0 4 0 2 159 154 
3 0 0 0 10 0 5 158 157 156 155 207 
6 0 0 0 6 0 1 163 
2 0 0 0 10 0 1 163 
8 0 0 0 6 0 1 163 
1 0 0 0 8 0 1 163 
4 0 0 0 4 0 1 163 
9 0 0 0 9 0 1 163 
5 0 0 0 9 0 1 163 
4 0 0 0 9 0 1 163 
0 0 0 0 0 0 2 164 186 
0 0 0 0 0 0 9 165 166 168 169 170 172 175 183 184 
3 0 0 0 6 2 3 182 180 167 
5 0 0 0 5 8 4 181 180 179 174 
7 0 0 0 4 8 2 177 171 
7 0 0 0 5 10 3 178 177 176 
1 0 0 0 5 9 2 179 173 
8 0 0 0 8 10 2 177 173 
10 0 0 0 5 8 1 173 
7 0 0 0 9 10 1 174 
1 0 0 0 6 10 1 176 
5 0 0 0 6 7 1 176 
7 0 0 0 10 8 1 178 
9 0 0 0 5 5 1 185 
9 0 0 0 9 5 1 185 
2 0 0 0 10 9 1 185 
4 0 0 0 10 10 1 185 
9 0 0 0 9 5 1 185 
7 0 0 0 9 8 1 185 
3 0 0 0 9 2 1 185 
5 0 0 0 10 8 1 185 
2 0 0 0 10 8 1 185 
0 0 0 0 0 0 1 222 
0 0 0 0 0 0 6 187 189 193 194 195 196 
3 5 0 0 0 0 3 192 191 188 
2 6 0 0 0 0 1 190 
2 9 0 0 0 0 1 190 
2 8 0 0 0 0 1 197 
6 10 0 0 0 0 1 197 
9 5 0 0 0 0 1 197 
1 9 0 0 0 0 1 197 
6 9 0 0 0 0 1 197 
8 9 0 0 0 0 1 197 
9 5 0 0 0 0 1 197 
0 0 0 0 0 0 2 198 210 
0 0 0 0 0 0 7 199 200 202 203 206 207 208 
2 0 0 0 3 0 1 201 
8 0 0 0 6 0 1 201 
7 0 0 0 8 0 2 205 204 
9 0 0 0 8 0 1 205 
9 0 0 0 10 0 1 204 
1 0 0 0 7 0 1 209 
5 0 0 0 7 0 1 209 
1 0 0 0 9 0 1 209 
9 0 0 0 7 0 1 209 
8 0 0 0 10 0 1 209 
0 0 0 0 0 0 1 222 
0 0 0 0 0 0 7 211 213 214 215 216 219 220 
8 1 0 0 0 0 2 217 212 
5 9 0 0 0 0 1 218 
6 7 0 0 0 0 1 218 
6 6 0 0 0 0 1 217 
3 10 0 0 0 0 1 217 
4 10 0 0 0 0 1 217 
6 5 0 0 0 0 1 221 
5 9 0 0 0 0 1 221 
9 8 0 0 0 0 1 221 
8 10 0 0 0 0 1 221 
0 0 0 0 0 0 1 222 
0 0 0 0 0 0 0 
